Route 1: 92 95 83 52 65 2 69 61 98 88 14 16 12 73 79 78 53 82 90 81 85 56 66 68 54 96 94 50 32 26 34 93 80 91 70 100
Route 2: 72 31 33 28 29 27 63 23 21 19 51 64 99 57 86 59 87 9 75 10 7 46 3 1 60 55 4 35 37 48
Route 3: 45 5 42 39 36 71 62 30 67 76 84 22 18 49 20 24 97 13 74 17 77 58 25
Route 4: 47 15 11 44 40 38 41 6 8 43 89
Vehicles: 4
Distance: 2062.28
